
Gurobi 11.0.1 (win64) logging started Wed May 15 12:30:32 2024

Set parameter LogFile to value "output/solver_log8.txt"
Gurobi Optimizer version 11.0.1 build v11.0.1rc0 (win64 - Windows 11.0 (22631.2))

CPU model: 11th Gen Intel(R) Core(TM) i7-1165G7 @ 2.80GHz, instruction set [SSE2|AVX|AVX2|AVX512]
Thread count: 4 physical cores, 8 logical processors, using up to 8 threads

Optimize a model with 2216 rows, 426 columns and 41011 nonzeros
Model fingerprint: 0xee46463d
Variable types: 248 continuous, 178 integer (178 binary)
Coefficient statistics:
  Matrix range     [4e-01, 1e+05]
  Objective range  [1e+00, 1e+02]
  Bounds range     [1e+00, 1e+00]
  RHS range        [1e-02, 1e+05]

User MIP start produced solution with objective 75783.5 (0.00s)
User MIP start produced solution with objective 75783.5 (0.01s)
Loaded user MIP start with objective 75783.5

Presolve removed 108 rows and 107 columns
Presolve time: 0.05s
Presolved: 2108 rows, 319 columns, 40433 nonzeros
Variable types: 228 continuous, 91 integer (91 binary)

Root relaxation: objective 7.592102e+04, 577 iterations, 0.03 seconds (0.08 work units)

    Nodes    |    Current Node    |     Objective Bounds      |     Work
 Expl Unexpl |  Obj  Depth IntInf | Incumbent    BestBd   Gap | It/Node Time

     0     0 75921.0177    0    3 75783.4808 75921.0177  0.18%     -    0s
H    0     0                    75921.017667 75921.0177  0.00%     -    0s

Explored 1 nodes (577 simplex iterations) in 0.30 seconds (0.42 work units)
Thread count was 8 (of 8 available processors)

Solution count 3: 75921 75921 75783.5 

Optimal solution found (tolerance 1.00e-04)
Best objective 7.592101766688e+04, best bound 7.592101766688e+04, gap 0.0000%
